
========================================
         Starting Pipeline for: Calender (Mode: ContextualCVC5)
========================================
Initializing pipeline for benchmark: 'Calender'
   -> Loading and validating attributes from: /Dualis/scripts/../benchmarks/Classical/Calender/Attributes.txt
      -> Validation successful. Attribute file is consistent.
Total External Iterations: 0
Total Unique Test Cases Found: 0

==================== Iteration: 1 ====================
TIMEOUT : 20
   -> Parsing SYGUS file: /Dualis/scripts/../benchmarks/ContextualCVC5_working_temp/Calender/Calender.sy
   -> Starting CVC5 with a 1000-second timeout...
      -> Logging CVC5 output to iter_1.log
   -> CVC5 completed successfully.
   -> Writing new specs to harness: Calender_fuzz.cpp...
      -> Successfully created working copy '/Dualis/scripts/../benchmarks/ContextualCVC5_working_temp/Calender/Calender_fuzz.cpp'.
   -> Starting AFL++(Calender_fuzz) with a 20-second timeout...
   -> Building AFL-instrumented binary: /Dualis/scripts/../benchmarks/ContextualCVC5_working_temp/Calender/Calender_fuzz
   -> AFL++(Calender_fuzz) finished its fuzzing session.
   -> Checking fuzzing outputs for counterexamples...
Checking crashes
   -> Found 3 crash reports. Testing reproducibility...
   -> CRASH REPRODUCED with id:000001,sig:06,src:000000,time:1649,execs:1173,op:havoc,rep:3
   -> CRASH REPRODUCED with id:000002,sig:06,src:000000,time:1662,execs:1440,op:havoc,rep:4
   -> CRASH REPRODUCED with id:000000,sig:06,src:000000,time:170,execs:58,op:havoc,rep:3
Checking queue
   -> Found 20 crash reports. Testing reproducibility...
Checking hangs
   -> Converting counterexamples for 'Calender'...
       -> Found and validated 5 new constraints.
   -> Updating CHC file with new counterexamples...

=============== Artifacts This Iteration ===============

--- Generated Specs ---
  insert: ((len1 + ev1) == ev1)
  inv: ((len + maxDiff) == maxDiff)

--- New Test Cases Found ---

--- Updated SYGUS (for next iteration) ---
(set-logic LIA)

(synth-fun insert ((len Int) (ev1 Int) (ev2 Int) (maxDiff Int) (len1 Int) (maxDiff1 Int)) Bool ((Start Bool) (Expr Int)) ((Start Bool ((<= Expr Expr)(>= Expr Expr)(= Expr Expr)(and Start Start)(or Start Start)(not Start)))(Expr Int ((+ Expr Expr)(- Expr Expr) len ev1 ev2 maxDiff len1 maxDiff1))))
(synth-fun inv ((len Int) (maxDiff Int)) Bool ((Start Bool) (Expr Int)) ((Start Bool ((<= Expr Expr)(>= Expr Expr)(= Expr Expr)(and Start Start)(or Start Start)(not Start)))(Expr Int ((+ Expr Expr)(- Expr Expr) len maxDiff))))

(declare-var len Int)
(declare-var len1 Int)
(declare-var maxDiff Int)
(declare-var maxDiff1 Int)
(declare-var ev1 Int)
(declare-var ev2 Int)

(define-fun MIN () Int -129)

(constraint (insert 0 1 0 0 0 0))
(constraint (insert 0 1 1 1 0 0))
(constraint (insert 0 1 2 2 0 0))
(constraint (insert 0 1 0 1 0 1))
(constraint (insert 0 1 1 0 0 1))

(constraint (=> (and (= len 0) (= maxDiff MIN)) (inv len maxDiff)))
(constraint (=> (and (inv len maxDiff) (and (>= ev1 0) (<= ev1 3) (>= ev2 0) (<= ev2 3) (< (- ev1 ev2) 2)) (insert len ev1 ev2 maxDiff len1 maxDiff1)) (inv len1 maxDiff1)))
(constraint (=> (and (inv len maxDiff) (not (and (>= ev1 0) (<= ev1 3) (>= ev2 0) (<= ev2 3) (< (- ev1 ev2) 2)))) (inv len maxDiff)))
(constraint (=> (inv len maxDiff) (=> (> len 0) (< maxDiff 2))))

(check-synth)
==============================================================
   -> Checking if specs have changed...
      -> SYGUS files are different. Continuing iteration.

==================== Iteration: 2 ====================
TIMEOUT : 40
   -> Parsing SYGUS file: /Dualis/scripts/../benchmarks/ContextualCVC5_working_temp/Calender/Calender.sy
   -> Starting CVC5 with a 1000-second timeout...
      -> Logging CVC5 output to iter_2.log
   -> CVC5 completed successfully.
   -> Writing new specs to harness: Calender_fuzz.cpp...
      -> Successfully created working copy '/Dualis/scripts/../benchmarks/ContextualCVC5_working_temp/Calender/Calender_fuzz.cpp'.
   -> Starting AFL++(Calender_fuzz) with a 40-second timeout...
   -> Building AFL-instrumented binary: /Dualis/scripts/../benchmarks/ContextualCVC5_working_temp/Calender/Calender_fuzz
   -> AFL++(Calender_fuzz) finished its fuzzing session.
   -> Checking fuzzing outputs for counterexamples...
Checking crashes
   -> Found 3 crash reports. Testing reproducibility...
   -> CRASH REPRODUCED with id:000000,sig:06,src:000000,time:183,execs:29,op:havoc,rep:1
   -> CRASH REPRODUCED with id:000002,sig:06,src:000003,time:5483,execs:1507,op:havoc,rep:16
   -> CRASH REPRODUCED with id:000001,sig:06,src:000003,time:5117,execs:1501,op:havoc,rep:10
Checking queue
   -> Found 19 crash reports. Testing reproducibility...
Checking hangs
   -> Converting counterexamples for 'Calender'...
       -> Found and validated 5 new constraints.
   -> Updating CHC file with new counterexamples...

=============== Artifacts This Iteration ===============

--- Generated Specs ---
  insert: (len1 == len)
  inv: ((len + maxDiff) == maxDiff)

--- New Test Cases Found ---

--- Updated SYGUS (for next iteration) ---
(set-logic LIA)

(synth-fun insert ((len Int) (ev1 Int) (ev2 Int) (maxDiff Int) (len1 Int) (maxDiff1 Int)) Bool ((Start Bool) (Expr Int)) ((Start Bool ((<= Expr Expr)(>= Expr Expr)(= Expr Expr)(and Start Start)(or Start Start)(not Start)))(Expr Int ((+ Expr Expr)(- Expr Expr) len ev1 ev2 maxDiff len1 maxDiff1))))
(synth-fun inv ((len Int) (maxDiff Int)) Bool ((Start Bool) (Expr Int)) ((Start Bool ((<= Expr Expr)(>= Expr Expr)(= Expr Expr)(and Start Start)(or Start Start)(not Start)))(Expr Int ((+ Expr Expr)(- Expr Expr) len maxDiff))))

(declare-var len Int)
(declare-var len1 Int)
(declare-var maxDiff Int)
(declare-var maxDiff1 Int)
(declare-var ev1 Int)
(declare-var ev2 Int)

(define-fun MIN () Int -129)


(constraint (insert 0 1 0 0 0 0))
(constraint (insert 0 1 1 1 0 0))
(constraint (insert 0 1 2 2 0 0))
(constraint (insert 0 1 0 1 0 1))
(constraint (insert 0 1 1 0 0 1))
(constraint (=> (and (= len 0) (= maxDiff MIN)) (inv len maxDiff)))
(constraint (=> (and (inv len maxDiff) (and (>= ev1 0) (<= ev1 3) (>= ev2 0) (<= ev2 3) (< (- ev1 ev2) 2)) (insert len ev1 ev2 maxDiff len1 maxDiff1)) (inv len1 maxDiff1)))
(constraint (=> (and (inv len maxDiff) (not (and (>= ev1 0) (<= ev1 3) (>= ev2 0) (<= ev2 3) (< (- ev1 ev2) 2)))) (inv len maxDiff)))
(constraint (=> (inv len maxDiff) (=> (> len 0) (< maxDiff 2))))

(check-synth)
==============================================================
   -> Checking if specs have changed...
      -> SYGUS files are different. Continuing iteration.

==================== Iteration: 3 ====================
TIMEOUT : 60
   -> Parsing SYGUS file: /Dualis/scripts/../benchmarks/ContextualCVC5_working_temp/Calender/Calender.sy
   -> Starting CVC5 with a 1000-second timeout...
      -> Logging CVC5 output to iter_3.log
   -> CVC5 completed successfully.
   -> Writing new specs to harness: Calender_fuzz.cpp...
      -> Successfully created working copy '/Dualis/scripts/../benchmarks/ContextualCVC5_working_temp/Calender/Calender_fuzz.cpp'.
   -> Starting AFL++(Calender_fuzz) with a 60-second timeout...
   -> Building AFL-instrumented binary: /Dualis/scripts/../benchmarks/ContextualCVC5_working_temp/Calender/Calender_fuzz
   -> AFL++(Calender_fuzz) finished its fuzzing session.
   -> Checking fuzzing outputs for counterexamples...
Checking crashes
   -> Found 2 crash reports. Testing reproducibility...
   -> CRASH REPRODUCED with id:000000,sig:06,src:000000,time:179,execs:24,op:havoc,rep:11
   -> CRASH REPRODUCED with id:000001,sig:06,src:000000,time:5974,execs:377,op:havoc,rep:14
Checking queue
   -> Found 17 crash reports. Testing reproducibility...
Checking hangs
   -> Converting counterexamples for 'Calender'...
       -> Found and validated 5 new constraints.
   -> Updating CHC file with new counterexamples...

=============== Artifacts This Iteration ===============

--- Generated Specs ---
  insert: (len1 == len)
  inv: ((len + maxDiff) == maxDiff)

--- New Test Cases Found ---

--- Updated SYGUS (for next iteration) ---
(set-logic LIA)

(synth-fun insert ((len Int) (ev1 Int) (ev2 Int) (maxDiff Int) (len1 Int) (maxDiff1 Int)) Bool ((Start Bool) (Expr Int)) ((Start Bool ((<= Expr Expr)(>= Expr Expr)(= Expr Expr)(and Start Start)(or Start Start)(not Start)))(Expr Int ((+ Expr Expr)(- Expr Expr) len ev1 ev2 maxDiff len1 maxDiff1))))
(synth-fun inv ((len Int) (maxDiff Int)) Bool ((Start Bool) (Expr Int)) ((Start Bool ((<= Expr Expr)(>= Expr Expr)(= Expr Expr)(and Start Start)(or Start Start)(not Start)))(Expr Int ((+ Expr Expr)(- Expr Expr) len maxDiff))))

(declare-var len Int)
(declare-var len1 Int)
(declare-var maxDiff Int)
(declare-var maxDiff1 Int)
(declare-var ev1 Int)
(declare-var ev2 Int)

(define-fun MIN () Int -129)


(constraint (insert 0 1 0 0 0 0))
(constraint (insert 0 1 1 1 0 0))
(constraint (insert 0 1 2 2 0 0))
(constraint (insert 0 1 0 1 0 1))
(constraint (insert 0 1 1 0 0 1))
(constraint (=> (and (= len 0) (= maxDiff MIN)) (inv len maxDiff)))
(constraint (=> (and (inv len maxDiff) (and (>= ev1 0) (<= ev1 3) (>= ev2 0) (<= ev2 3) (< (- ev1 ev2) 2)) (insert len ev1 ev2 maxDiff len1 maxDiff1)) (inv len1 maxDiff1)))
(constraint (=> (and (inv len maxDiff) (not (and (>= ev1 0) (<= ev1 3) (>= ev2 0) (<= ev2 3) (< (- ev1 ev2) 2)))) (inv len maxDiff)))
(constraint (=> (inv len maxDiff) (=> (> len 0) (< maxDiff 2))))

(check-synth)
==============================================================
   -> Checking if specs have changed...
      -> SYGUS files are identical. Pipeline has converged.
   -> 15-minute deep fuzzing converged. Pipeline complete.

==================== Finalizing Pipeline ====================

====================== Pipeline Finished =====================
Total External Iterations: 3
Total Unique Test Cases Found: 15
pipeline.run() took 0.1751 seconds.
Running command: /usr/bin/python3 chcverifynfuzz.py ContextualCVC5 Calender
PID: 29
========================================


Total Pipeline Duration: 127.06s
